c "489570.clq"
p edge 141 548
e 1 5
e 1 15
e 1 57
e 1 109
e 1 121
e 1 139
e 2 5
e 2 6
e 2 45
e 2 82
e 2 114
e 3 5
e 3 6
e 3 7
e 3 9
e 3 11
e 3 14
e 3 31
e 3 55
e 3 56
e 3 59
e 3 60
e 4 5
e 4 6
e 4 7
e 4 8
e 4 9
e 4 10
e 4 14
e 4 18
e 4 24
e 4 26
e 4 27
e 4 66
e 4 133
e 4 136
e 5 6
e 5 7
e 5 8
e 5 9
e 5 10
e 5 12
e 5 13
e 5 15
e 5 17
e 5 19
e 5 20
e 5 21
e 5 27
e 5 28
e 5 34
e 5 35
e 5 40
e 5 45
e 5 50
e 5 51
e 5 60
e 5 63
e 5 64
e 5 73
e 5 80
e 5 85
e 5 86
e 5 87
e 5 88
e 5 92
e 5 110
e 5 114
e 5 118
e 5 126
e 5 134
e 5 137
e 5 140
e 6 7
e 6 8
e 6 10
e 6 11
e 6 12
e 6 13
e 6 14
e 6 16
e 6 17
e 6 18
e 6 21
e 6 22
e 6 23
e 6 24
e 6 26
e 6 32
e 6 33
e 6 37
e 6 38
e 6 41
e 6 42
e 6 44
e 6 45
e 6 47
e 6 48
e 6 49
e 6 54
e 6 56
e 6 59
e 6 61
e 6 62
e 6 66
e 6 67
e 6 76
e 6 78
e 6 80
e 6 83
e 6 87
e 6 98
e 6 106
e 6 108
e 6 113
e 6 114
e 6 120
e 6 123
e 6 124
e 6 126
e 6 128
e 6 133
e 6 139
e 7 8
e 7 9
e 7 10
e 7 11
e 7 17
e 7 18
e 7 20
e 7 34
e 7 37
e 7 50
e 7 55
e 7 67
e 7 68
e 7 89
e 7 93
e 7 96
e 7 102
e 7 117
e 7 118
e 7 129
e 7 131
e 7 132
e 7 135
e 8 11
e 8 12
e 8 14
e 8 16
e 8 19
e 8 22
e 8 23
e 8 24
e 8 26
e 8 29
e 8 32
e 8 33
e 8 34
e 8 36
e 8 40
e 8 43
e 8 44
e 8 52
e 8 59
e 8 64
e 8 68
e 8 69
e 8 70
e 8 72
e 8 74
e 8 77
e 8 81
e 8 82
e 8 84
e 8 92
e 8 98
e 8 102
e 8 104
e 8 107
e 8 110
e 8 113
e 8 114
e 8 116
e 8 122
e 8 124
e 8 130
e 8 135
e 9 12
e 9 30
e 9 36
e 9 47
e 9 82
e 9 90
e 9 97
e 9 127
e 9 131
e 10 13
e 10 16
e 10 19
e 10 20
e 10 31
e 10 36
e 10 41
e 10 43
e 10 46
e 10 47
e 10 64
e 10 83
e 10 101
e 11 15
e 11 19
e 11 37
e 11 55
e 11 60
e 11 81
e 11 111
e 11 117
e 11 125
e 11 137
e 12 13
e 12 16
e 12 17
e 12 18
e 12 27
e 12 28
e 12 29
e 12 41
e 12 46
e 12 47
e 12 62
e 12 66
e 12 67
e 12 79
e 12 86
e 12 95
e 12 96
e 12 99
e 12 105
e 12 115
e 13 15
e 13 29
e 13 33
e 13 46
e 13 48
e 13 57
e 13 71
e 13 122
e 13 127
e 13 129
e 14 20
e 14 23
e 14 32
e 14 38
e 14 45
e 14 49
e 14 50
e 14 51
e 14 58
e 14 69
e 14 71
e 14 101
e 14 107
e 15 21
e 15 22
e 15 53
e 15 90
e 15 104
e 15 105
e 16 27
e 16 35
e 16 39
e 16 44
e 16 52
e 16 53
e 16 59
e 16 70
e 16 97
e 16 105
e 16 108
e 16 123
e 16 141
e 17 21
e 17 23
e 17 24
e 17 31
e 17 36
e 17 40
e 17 42
e 17 65
e 17 72
e 17 75
e 17 91
e 17 94
e 17 115
e 17 120
e 17 121
e 17 128
e 17 137
e 17 138
e 18 25
e 18 28
e 18 35
e 18 43
e 18 53
e 18 68
e 18 73
e 18 95
e 18 115
e 19 25
e 19 29
e 19 30
e 19 33
e 19 35
e 19 40
e 19 48
e 19 58
e 19 69
e 19 77
e 19 79
e 19 83
e 19 84
e 19 91
e 19 101
e 19 108
e 19 110
e 19 115
e 20 22
e 20 25
e 20 30
e 20 34
e 20 76
e 20 79
e 20 82
e 20 85
e 20 111
e 20 120
e 20 125
e 21 48
e 21 52
e 21 141
e 22 25
e 22 26
e 22 31
e 22 46
e 22 60
e 22 64
e 22 88
e 22 89
e 22 96
e 22 100
e 22 103
e 22 111
e 23 28
e 23 38
e 23 39
e 23 116
e 24 39
e 24 61
e 24 127
e 25 38
e 25 68
e 25 77
e 25 90
e 26 37
e 26 42
e 26 50
e 26 75
e 26 81
e 26 118
e 26 121
e 26 135
e 27 54
e 27 74
e 27 80
e 27 92
e 27 96
e 27 99
e 27 100
e 27 132
e 28 43
e 28 51
e 28 76
e 28 104
e 28 116
e 28 127
e 29 30
e 29 39
e 29 56
e 30 41
e 30 66
e 30 85
e 30 102
e 31 32
e 31 99
e 32 69
e 33 53
e 33 136
e 34 70
e 34 100
e 35 77
e 35 139
e 36 42
e 36 72
e 36 87
e 36 88
e 36 137
e 37 56
e 37 71
e 37 97
e 38 124
e 39 44
e 39 57
e 40 49
e 40 76
e 40 119
e 41 49
e 41 57
e 41 58
e 41 89
e 41 103
e 42 51
e 42 52
e 42 73
e 42 88
e 42 89
e 42 134
e 43 55
e 43 65
e 43 93
e 43 106
e 45 54
e 45 61
e 45 63
e 45 65
e 45 74
e 45 95
e 45 120
e 45 140
e 46 65
e 46 72
e 46 117
e 46 125
e 46 130
e 46 135
e 47 62
e 47 79
e 47 140
e 48 62
e 48 94
e 48 98
e 48 128
e 49 54
e 49 61
e 49 70
e 49 108
e 49 113
e 49 141
e 50 91
e 51 93
e 51 106
e 51 131
e 52 63
e 52 83
e 52 94
e 52 122
e 53 84
e 53 105
e 54 58
e 54 63
e 54 86
e 54 123
e 54 132
e 55 71
e 55 78
e 55 90
e 55 136
e 56 74
e 56 75
e 56 78
e 56 94
e 58 86
e 58 95
e 58 118
e 58 125
e 59 78
e 59 98
e 60 84
e 62 101
e 62 130
e 62 133
e 63 80
e 63 100
e 64 109
e 65 91
e 66 67
e 66 87
e 67 81
e 68 73
e 69 75
e 69 99
e 69 112
e 69 119
e 69 134
e 70 93
e 73 123
e 75 104
e 75 110
e 75 121
e 76 85
e 76 111
e 76 113
e 78 109
e 79 112
e 79 131
e 80 112
e 81 117
e 82 102
e 82 126
e 84 92
e 84 116
e 85 103
e 85 106
e 85 136
e 86 103
e 90 122
e 93 107
e 93 119
e 93 130
e 93 138
e 95 97
e 101 129
e 101 133
e 102 112
e 102 124
e 103 126
e 105 107
e 107 109
e 110 119
e 110 139
e 113 132
e 114 128
e 115 129
e 123 141
e 125 134
e 126 140
e 129 138
e 135 138
